results/x-long/X-n190-k8.vrp_seed-20.out
16983	1143
