results/x-long/X-n190-k8.vrp_seed-20.vrp.sol
Route #1: 131 99 45 149 139 72 133 156 129 108 103 34 4 128 163 110 168 120 13 171 66 63 57 188 19 105
Route #2: 172 127 44 88 165 1 184 160 182 83 29 37
Route #3: 112 169 78 22 77 86 125 137 151 174 48 54 126 181 41 152 87 186 146 71 52 101 47 5 176 12 24 97 143 95
Route #4: 109 130 56 8 100 42 90 76 40 32 61 180 153 84 18 185 70 141 98 148 177 123 167 136 183 25 64
Route #5: 102 68 179 62 59 96 3 15 27 187 124 140 189 154 53 20 65 114 9 91 55 121 135
Route #6: 118 31 46 92 81 145 115 144 94 50 21 178 69 164 111 74 161 134 132 173 157 166 170
Route #7: 10 159 142 104 89 35 6 2 38 36 39 30 150 147 80 85 138 28 58 43 73
Route #8: 106 119 49 26 117 175 11 122 82 116 60 79 17 155 7 162 33 107 113 23 158 75 93 51 67 16 14
Cost 16983.000000